row=9;
column=9;
Board=[|8,5,0,3,2,0,0,0,0|7,0,0,4,0,0,0,5,3|5,7,3,1,0,8,6,2,0|4,9,8,0,3,2,5,1,0|0,6,0,8,1,0,0,3,0|0,0,5,7,9,6,0,0,0|0,0,0,0,5,4,9,7,8|2,4,0,5,0,9,3,0,1|6,0,0,9,7,0,0,4,5|];
OE=[|0,1,1,1,0,1,0,1,0|1,0,1,0,0,1,0,1,1|1,1,1,1,0,0,0,0,1|0,1,0,0,1,0,1,1,1|1,0,0,0,1,1,1,1,0|1,0,1,1,1,0,1,0,0|1,1,0,0,1,0,1,1,0|0,0,1,1,0,1,1,0,1|0,1,0,1,1,1,0,0,1|];
